&control
    title = 'ch3cl',
    calculation = 'md',
    restart_mode = 'from_scratch',
    nstep = 3,
    dt    = 20,
    pseudo_dir = '../pseudo/',
    prefix = 'ch3cl',
    use_plumed = .true.,
 /

 &system
    ibrav = 8,
    celldm(1) = 18.d0,
    celldm(2) = 0.666666d0,
    celldm(3) = 0.666666d0,
    nat  = 6,
    ntyp = 3,
    ecutwfc = 25.0,
    ecutrho = 200.0,
    nelec = 22.d0,
    nosym=.true.,
 /

 &ELECTRONS
    conv_thr =  1.0d-8,
    mixing_beta = 0.7,
 /

 &IONS
  ion_dynamics = 'verlet',
  ion_temperature = 'rescaling',
  tempw = 300.d0,
  tolp = 200.d0,
  tolp = 200.d0,
 /

ATOMIC_SPECIES
 Cl 35.4527d0 Cl.blyp-mt.UPF
 C 12.0107d0 C.blyp-mt.UPF
 H 1.00794d0 H.blyp-vbc.UPF

ATOMIC_POSITIONS bohr
Cl      12.880706242   6.000000000   5.994035868
Cl       3.581982751   6.000000000   5.989431927
C        9.410606817   6.000000000   6.004535337
H        8.743333410   4.313700292   5.030609604
H        8.743333410   7.686299708   5.030609604
H        8.746264064   6.000000000   7.952930073

K_POINTS {automatic}
 1 1 1 0 0 0
